db/inputs/698130289300411807992258462265816740.smt2
(set-logic QF_FP)
(declare-const x0 (_ FloatingPoint 11 53))
(declare-const x1 (_ FloatingPoint 11 53))
(declare-const x2 (_ FloatingPoint 11 53))
(declare-const x3 (_ FloatingPoint 11 53))
(declare-const x4 (_ FloatingPoint 11 53))
(declare-const x5 (_ FloatingPoint 11 53))
(declare-const x6 (_ FloatingPoint 11 53))
(declare-const x7 (_ FloatingPoint 11 53))
(declare-const x8 (_ FloatingPoint 11 53))
(declare-const x9 (_ FloatingPoint 11 53))
(assert (fp.geq (fp.div RNE (fp.sub RNE x5 x8) (fp.neg x9)) (fp.neg (fp.div RNE x7 x9))))
(assert (fp.geq (fp.div RNE (fp.sub RNE x2 x9) (fp.mul RNE x5 x2)) (fp.sub RNE (fp.sub RNE x9 x6) (fp.neg x4))))
(assert (fp.gt (fp.neg (fp.mul RNE x9 x5)) (fp.neg (fp.add RNE x6 x0))))
(check-sat)
