db/data/698130289300411807992258462265816740.z3.out
-------------------
2500.034958964
